89
[[-1, 0, 0, 0, 0, 0, 0, 0, 0, 0, 0, 0, 36926, 0, 30430, 0, 0, 0, 0, 0, 0, 0, 43340, 0, 43194, 0, 0, 0, 0, 0, 0, 0, 0, 33180, 19756, 0, 0, 0, 0, 0, 0, 0, 0, 0, 0, 33012, 0, 0, 0, 0, 12750, 0, 0, 43546, 0, 0, 0, 0, 45466, 0, 0, 0, 0, 0, 0, 20675, 42778, 0, 0, 0, 0, 0, 0, 0, 0, 39962, 0, 0, 0, 0, 25748, 0, 42698, 0, 0, 0, 0, 0, 46141],[0, -1, 0, 0, 0, 0, 0, 16627, 0, 0, 0, 0, 42520, 11675, 42248, 0, 17525, 18850, 0, 0, 44651, 0, 0, 0, 18818, 0, 0, 0, 42984, 0, 0, 25496, 0, 0, 0, 0, 0, 0, 0, 0, 0, 19723, 0, 0, 0, 36066, 34024, 0, 0, 0, 0, 0, 0, 19462, 0, 0, 0, 39877, 0, 0, 46145, 0, 0, 0, 0, 0, 0, 19506, 17278, 0, 0, 42939, 0, 0, 0, 0, 0, 0, 0, 0, 0, 22582, 0, 10525, 0, 0, 20588, 0, 0],[0, 0, -1, 0, 0, 0, 0, 0, 0, 0, 0, 0, 0, 0, 35065, 0, 0, 0, 0, 0, 28112, 16322, 0, 0, 0, 41228, 0, 0, 0, 0, 0, 0, 0, 0, 0, 0, 0, 35087, 0, 0, 0, 32386, 0, 0, 0, 0, 0, 21563, 0, 22675, 0, 31519, 0, 0, 0, 10506, 0, 0, 0, 0, 42901, 40131, 21098, 40931, 0, 0, 40692, 42523, 19140, 0, 0, 31694, 0, 0, 0, 21843, 0, 0, 0, 0, 0, 0, 0, 0, 0, 0, 32572, 0, 0],[0, 0, 0, -1, 0, 0, 0, 0, 0, 22752, 0, 0, 38982, 17332, 0, 39269, 0, 0, 0, 0, 0, 20415, 0, 0, 0, 0, 0, 0, 0, 0, 0, 19009, 37282, 0, 0, 36448, 0, 13139, 0, 0, 41930, 34346, 0, 0, 41386, 0, 0, 0, 0, 0, 7890, 0, 0, 0, 0, 43766, 0, 0, 0, 0, 0, 35467, 0, 0, 0, 10116, 20241, 0, 0, 26456, 0, 0, 0, 45111, 0, 0, 0, 0, 0, 39222, 31345, 0, 38560, 0, 38805, 0, 0, 43567, 0],[0, 0, 0, 0, -1, 0, 22279, 0, 0, 0, 0, 0, 34502, 0, 39967, 0, 0, 41819, 40579, 10357, 32488, 0, 0, 38620, 0, 0, 0, 43542, 36840, 0, 37251, 0, 0, 45497, 0, 0, 28756, 0, 0, 0, 0, 34220, 0, 0, 0, 0, 43956, 0, 0, 0, 0, 0, 44136, 0, 0, 23716, 0, 0, 0, 40701, 0, 0, 35336, 23387, 0, 0, 0, 35148, 0, 0, 17560, 0, 0, 45677, 0, 0, 0, 0, 0, 28130, 0, 0, 0, 0, 22226, 0, 0, 0, 0],[0, 0, 0, 0, 0, -1, 0, 30664, 0, 0, 0, 0, 0, 33751, 17338, 22103, 27113, 0, 0, 26011, 0, 0, 0, 0, 0, 0, 0, 0, 20878, 0, 0, 0, 0, 0, 45865, 35091, 26957, 0, 0, 0, 0, 15192, 0, 0, 36268, 0, 0, 0, 0, 0, 0, 0, 0, 35312, 0, 0, 33688, 0, 0, 0, 0, 0, 32997, 0, 0, 0, 0, 0, 0, 0, 0, 0, 0, 0, 0, 33176, 0, 0, 21049, 0, 0, 0, 0, 0, 0, 38651, 0, 0, 0],[0, 0, 0, 0, 22279, 0, -1, 0, 0, 0, 35534, 0, 0, 35863, 0, 0, 0, 0, 0, 42922, 0, 40769, 23965, 0, 0, 0, 0, 0, 0, 41918, 31238, 33943, 0, 0, 0, 24966, 0, 0, 0, 14176, 0, 0, 0, 0, 19267, 0, 32495, 0, 0, 0, 0, 0, 0, 12934, 0, 39508, 0, 12754, 18376, 30190, 0, 0, 16112, 25860, 44958, 0, 0, 27268, 0, 35694, 37007, 0, 0, 0, 0, 9276, 0, 44253, 0, 0, 0, 0, 0, 0, 0, 0, 0, 46286, 0],[0, 16627, 0, 0, 0, 30664, 0, -1, 0, 0, 0, 0, 0, 0, 0, 41389, 0, 0, 0, 32603, 28879, 0, 0, 0, 0, 26967, 0, 38148, 16518, 0, 0, 39266, 0, 0, 41981, 0, 0, 0, 0, 0, 0, 0, 39257, 0, 0, 0, 0, 0, 0, 40448, 0, 0, 0, 0, 0, 0, 17368, 36976, 0, 0, 0, 26799, 23140, 0, 0, 37541, 41007, 0, 26905, 0, 0, 0, 0, 32813, 0, 0, 0, 0, 0, 21828, 0, 0, 0, 0, 0, 0, 0, 0, 0],[0, 0, 0, 0, 0, 0, 0, 0, -1, 0, 0, 0, 0, 40201, 0, 0, 0, 0, 0, 0, 0, 35240, 12626, 44952, 30179, 0, 0, 0, 0, 0, 30578, 38190, 42259, 35913, 42031, 0, 19845, 0, 0, 38493, 0, 0, 0, 0, 0, 16107, 0, 0, 0, 0, 39167, 16762, 0, 31045, 0, 0, 39626, 0, 39648, 0, 42599, 0, 0, 0, 33412, 45630, 22599, 0, 0, 0, 30311, 0, 0, 0, 0, 0, 0, 0, 0, 0, 0, 36886, 0, 45356, 0, 0, 0, 0, 0],[0, 0, 0, 22752, 0, 0, 0, 0, 0, -1, 36359, 0, 0, 0, 17396, 0, 0, 0, 0, 0, 42983, 0, 0, 18826, 33776, 43634, 0, 0, 0, 38641, 0, 0, 0, 0, 0, 0, 0, 0, 0, 0, 38325, 0, 0, 20740, 0, 0, 0, 43029, 0, 0, 0, 32268, 0, 0, 40162, 30814, 0, 0, 0, 0, 7611, 0, 0, 0, 0, 0, 0, 0, 30709, 0, 26434, 0, 0, 27639, 0, 0, 22910, 0, 0, 0, 0, 0, 34532, 0, 0, 19431, 0, 0, 0],[0, 0, 0, 0, 0, 0, 35534, 0, 0, 36359, -1, 0, 0, 0, 39922, 0, 0, 42392, 0, 0, 23562, 28871, 0, 0, 30954, 0, 0, 0, 0, 0, 38258, 0, 0, 0, 0, 0, 0, 0, 0, 0, 0, 0, 0, 0, 0, 0, 0, 45719, 0, 11317, 41335, 0, 0, 0, 17689, 0, 0, 0, 0, 0, 0, 0, 0, 0, 0, 0, 0, 0, 44951, 0, 0, 0, 0, 0, 0, 26358, 0, 0, 36623, 0, 0, 0, 27369, 17372, 0, 0, 0, 0, 0],[0, 0, 0, 0, 0, 0, 0, 0, 0, 0, 0, -1, 0, 15088, 0, 0, 0, 0, 0, 0, 0, 0, 0, 42517, 0, 0, 0, 0, 0, 41222, 0, 0, 0, 0, 45265, 0, 0, 0, 0, 25820, 20029, 0, 0, 0, 0, 0, 0, 0, 19922, 0, 36217, 37150, 0, 0, 19836, 0, 0, 0, 15942, 38950, 0, 17679, 38668, 0, 0, 0, 0, 0, 0, 42386, 0, 0, 0, 0, 0, 31686, 0, 16514, 0, 0, 34763, 0, 0, 0, 23689, 0, 0, 0, 0],[36926, 42520, 0, 38982, 34502, 0, 0, 0, 0, 0, 0, 0, -1, 27926, 0, 30336, 0, 0, 0, 8739, 0, 0, 37721, 7487, 40983, 0, 0, 39566, 0, 0, 0, 0, 0, 0, 0, 0, 30316, 0, 0, 0, 0, 41335, 0, 0, 23215, 0, 20328, 0, 0, 0, 0, 0, 0, 30612, 0, 0, 0, 0, 26685, 0, 0, 0, 0, 0, 0, 0, 41049, 0, 9182, 0, 0, 0, 46336, 0, 0, 0, 0, 0, 0, 45165, 35683, 0, 0, 0, 31310, 0, 0, 0, 21902],[0, 11675, 0, 17332, 0, 33751, 35863, 0, 40201, 0, 0, 15088, 27926, -1, 0, 0, 45526, 35072, 0, 0, 0, 0, 0, 0, 38852, 0, 0, 0, 24494, 0, 43050, 0, 39211, 0, 0, 0, 0, 0, 29782, 0, 0, 0, 0, 0, 37950, 0, 27626, 0, 0, 0, 0, 0, 0, 0, 14886, 0, 0, 0, 0, 0, 0, 0, 38983, 0, 0, 0, 0, 0, 0, 38530, 0, 31926, 0, 0, 40777, 0, 43780, 0, 0, 0, 40789, 40446, 0, 0, 0, 23794, 0, 0, 0],[30430, 42248, 35065, 0, 39967, 17338, 0, 0, 0, 17396, 39922, 0, 0, 0, -1, 45094, 41272, 40064, 0, 0, 0, 0, 0, 0, 37791, 30545, 33199, 36339, 0, 0, 0, 0, 40766, 0, 0, 0, 24383, 0, 0, 0, 32095, 0, 19687, 0, 27156, 0, 0, 0, 0, 0, 0, 0, 44514, 0, 0, 0, 0, 0, 0, 0, 0, 0, 0, 35011, 0, 32565, 0, 0, 0, 30372, 0, 0, 0, 0, 34729, 0, 28766, 0, 0, 0, 0, 26679, 0, 0, 0, 0, 0, 35298, 22585],[0, 0, 0, 39269, 0, 22103, 0, 41389, 0, 0, 0, 0, 30336, 0, 45094, -1, 0, 0, 24833, 0, 20960, 0, 34828, 42748, 0, 0, 0, 28762, 0, 0, 23111, 0, 0, 42755, 29925, 0, 0, 0, 0, 0, 0, 32103, 0, 13115, 39111, 0, 0, 0, 36883, 0, 0, 37804, 0, 0, 0, 0, 43822, 0, 0, 0, 0, 0, 21723, 0, 0, 0, 0, 35487, 6502, 0, 0, 0, 0, 0, 37151, 0, 0, 23991, 34013, 0, 0, 0, 0, 0, 0, 0, 0, 0, 20831],[0, 17525, 0, 0, 0, 27113, 0, 0, 0, 0, 0, 0, 0, 45526, 41272, 0, -1, 0, 37754, 0, 0, 0, 0, 0, 0, 36207, 0, 0, 0, 0, 0, 0, 0, 0, 0, 0, 31673, 0, 0, 0, 0, 35258, 0, 0, 0, 0, 0, 0, 0, 0, 0, 0, 0, 0, 0, 0, 0, 0, 40398, 33458, 0, 0, 0, 45823, 0, 0, 0, 39480, 0, 0, 24231, 0, 0, 0, 0, 0, 0, 39774, 38573, 0, 14529, 0, 11442, 34897, 0, 0, 0, 16360, 0],[0, 18850, 0, 0, 41819, 0, 0, 0, 0, 0, 42392, 0, 0, 35072, 40064, 0, 0, -1, 13793, 0, 0, 33169, 0, 0, 0, 0, 0, 0, 0, 0, 0, 0, 0, 24992, 0, 36562, 0, 0, 22151, 0, 0, 0, 43652, 15102, 0, 0, 0, 29970, 0, 0, 0, 0, 0, 19063, 0, 0, 0, 0, 0, 0, 0, 0, 0, 0, 0, 0, 0, 11886, 0, 0, 0, 0, 0, 0, 0, 0, 0, 0, 0, 0, 0, 0, 9031, 0, 38458, 0, 0, 0, 0],[0, 0, 0, 0, 40579, 0, 0, 0, 0, 0, 0, 0, 0, 0, 0, 24833, 37754, 13793, -1, 0, 32125, 0, 0, 0, 0, 0, 42573, 0, 0, 0, 0, 14589, 0, 34152, 0, 0, 0, 0, 0, 0, 0, 25711, 0, 33785, 0, 0, 0, 0, 0, 0, 37522, 0, 0, 0, 11312, 0, 0, 0, 0, 1253, 0, 0, 0, 0, 0, 35205, 0, 0, 0, 0, 0, 0, 0, 0, 0, 0, 0, 33966, 38672, 41514, 0, 0, 0, 42474, 0, 0, 0, 23891, 0],[0, 0, 0, 0, 10357, 26011, 42922, 32603, 0, 0, 0, 0, 8739, 0, 0, 0, 0, 0, 0, -1, 0, 0, 35357, 0, 0, 0, 0, 0, 0, 0, 40206, 0, 0, 0, 0, 37486, 38865, 0, 0, 0, 0, 0, 0, 0, 0, 14429, 8408, 0, 0, 0, 0, 0, 0, 0, 0, 0, 17829, 0, 0, 0, 38498, 0, 0, 31851, 0, 0, 0, 0, 14796, 0, 12204, 0, 0, 39118, 44040, 0, 0, 38106, 0, 0, 0, 0, 0, 0, 7601, 38201, 0, 0, 43392],[0, 44651, 28112, 0, 32488, 0, 0, 28879, 0, 42983, 23562, 0, 0, 0, 0, 20960, 0, 0, 32125, 0, -1, 0, 0, 45456, 39733, 0, 15993, 0, 0, 30973, 0, 44440, 28633, 13676, 0, 0, 0, 0, 0, 0, 0, 0, 0, 25415, 45565, 0, 37640, 0, 0, 0, 0, 0, 0, 0, 37023, 0, 0, 0, 0, 31955, 0, 5674, 40980, 19598, 41984, 0, 0, 0, 35640, 0, 0, 0, 0, 0, 0, 0, 0, 28589, 25062, 0, 0, 0, 0, 30773, 24499, 0, 0, 0, 0],[0, 0, 16322, 20415, 0, 0, 40769, 0, 35240, 0, 28871, 0, 0, 0, 0, 0, 0, 33169, 0, 0, 0, -1, 0, 0, 21342, 0, 45288, 0, 0, 0, 0, 0, 43591, 34062, 0, 0, 0, 0, 0, 44222, 0, 0, 0, 0, 0, 41456, 0, 0, 0, 0, 15875, 0, 13008, 25110, 30999, 0, 0, 0, 0, 36836, 3062, 0, 0, 0, 0, 0, 0, 0, 43387, 0, 0, 0, 0, 0, 0, 0, 20229, 0, 40209, 22320, 37880, 0, 0, 0, 0, 0, 24201, 0, 0],[43340, 0, 0, 0, 0, 0, 23965, 0, 12626, 0, 0, 0, 37721, 0, 0, 34828, 0, 0, 0, 35357, 0, 0, -1, 0, 12394, 0, 0, 0, 12350, 33911, 0, 44246, 29658, 0, 0, 32914, 0, 0, 0, 0, 0, 0, 0, 21618, 0, 0, 0, 0, 0, 0, 0, 26950, 39310, 0, 0, 0, 0, 0, 0, 40336, 0, 18575, 0, 45322, 0, 0, 25019, 0, 38377, 0, 19263, 40903, 45598, 0, 0, 0, 0, 41503, 33574, 39986, 0, 27859, 0, 45619, 0, 0, 0, 0, 0],[0, 0, 0, 0, 38620, 0, 0, 0, 44952, 18826, 0, 42517, 7487, 0, 0, 42748, 0, 0, 0, 0, 45456, 0, 0, -1, 0, 0, 37594, 0, 0, 0, 0, 0, 0, 0, 0, 0, 0, 0, 40050, 16762, 0, 0, 0, 0, 0, 0, 0, 26835, 15571, 0, 15146, 0, 0, 0, 0, 0, 22169, 0, 0, 44210, 34636, 0, 0, 0, 44669, 0, 0, 0, 0, 0, 0, 0, 0, 0, 0, 0, 0, 35500, 16859, 0, 0, 39401, 31520, 0, 0, 41867, 0, 0, 0],[43194, 18818, 0, 0, 0, 0, 0, 0, 30179, 33776, 30954, 0, 40983, 38852, 37791, 0, 0, 0, 0, 0, 39733, 21342, 12394, 0, -1, 0, 0, 41969, 18169, 14223, 0, 0, 0, 0, 0, 42730, 0, 0, 0, 0, 0, 38058, 0, 0, 0, 0, 0, 0, 0, 0, 0, 0, 0, 0, 43332, 0, 0, 0, 0, 37409, 31811, 0, 33620, 0, 0, 0, 0, 35849, 0, 0, 0, 26153, 24346, 0, 13135, 0, 0, 20939, 0, 0, 0, 32151, 0, 36872, 0, 0, 0, 34385, 0],[0, 0, 41228, 0, 0, 0, 0, 26967, 0, 43634, 0, 0, 0, 0, 30545, 0, 36207, 0, 0, 0, 0, 0, 0, 0, 0, -1, 0, 0, 36910, 21732, 28546, 0, 0, 0, 0, 0, 0, 13537, 42426, 0, 0, 0, 0, 0, 38277, 0, 0, 0, 0, 0, 0, 22545, 23736, 0, 0, 0, 40829, 0, 0, 40619, 0, 0, 0, 0, 0, 0, 40214, 0, 0, 0, 0, 0, 0, 0, 0, 0, 24246, 0, 45694, 0, 43262, 0, 0, 15059, 0, 44424, 0, 0, 0],[0, 0, 0, 0, 0, 0, 0, 0, 0, 0, 0, 0, 0, 0, 33199, 0, 0, 0, 42573, 0, 15993, 45288, 0, 37594, 0, 0, -1, 16331, 0, 0, 0, 0, 0, 0, 0, 0, 0, 35864, 37948, 44469, 28197, 0, 0, 0, 0, 0, 0, 0, 0, 0, 0, 0, 0, 0, 0, 11654, 0, 0, 0, 0, 0, 6155, 0, 0, 0, 7034, 0, 0, 0, 0, 0, 0, 0, 43280, 0, 0, 0, 0, 0, 0, 0, 0, 0, 14764, 0, 30382, 0, 0, 41683],[0, 0, 0, 0, 43542, 0, 0, 38148, 0, 0, 0, 0, 39566, 0, 36339, 28762, 0, 0, 0, 0, 0, 0, 0, 0, 41969, 0, 16331, -1, 0, 41733, 44657, 0, 0, 0, 30922, 0, 23393, 0, 0, 0, 0, 0, 0, 0, 0, 0, 0, 0, 0, 0, 0, 0, 0, 30812, 0, 21378, 0, 0, 0, 0, 0, 0, 46300, 0, 0, 0, 28066, 0, 0, 40185, 0, 0, 0, 0, 0, 0, 0, 0, 45497, 0, 35430, 0, 0, 0, 0, 0, 0, 0, 0],[0, 42984, 0, 0, 36840, 20878, 0, 16518, 0, 0, 0, 0, 0, 24494, 0, 0, 0, 0, 0, 0, 0, 0, 12350, 0, 18169, 36910, 0, 0, -1, 0, 0, 0, 0, 0, 0, 0, 45714, 0, 0, 42405, 0, 0, 0, 0, 0, 0, 22354, 0, 0, 0, 0, 0, 0, 0, 0, 0, 0, 0, 0, 0, 0, 0, 0, 0, 0, 0, 0, 0, 0, 0, 0, 16790, 0, 0, 12673, 0, 0, 20896, 0, 0, 0, 0, 0, 23370, 0, 0, 39697, 1274, 26119],[0, 0, 0, 0, 0, 0, 41918, 0, 0, 38641, 0, 41222, 0, 0, 0, 0, 0, 0, 0, 0, 30973, 0, 33911, 0, 14223, 21732, 0, 41733, 0, -1, 0, 0, 21216, 0, 16080, 0, 33901, 0, 0, 0, 36459, 0, 0, 0, 0, 0, 0, 0, 15356, 0, 19804, 36502, 0, 0, 0, 36934, 0, 0, 0, 0, 0, 0, 0, 0, 0, 0, 0, 0, 0, 0, 0, 0, 0, 0, 0, 0, 0, 0, 0, 0, 0, 0, 18581, 0, 0, 0, 39322, 29706, 14900],[0, 0, 0, 0, 37251, 0, 31238, 0, 30578, 0, 38258, 0, 0, 43050, 0, 23111, 0, 0, 0, 40206, 0, 0, 0, 0, 0, 28546, 0, 44657, 0, 0, -1, 0, 0, 0, 0, 0, 0, 0, 0, 0, 0, 0, 0, 39317, 32030, 0, 0, 0, 0, 0, 16064, 32153, 0, 18961, 28484, 0, 37210, 0, 0, 0, 0, 0, 0, 0, 0, 0, 32400, 0, 0, 0, 0, 40763, 0, 0, 0, 39238, 0, 23711, 39619, 0, 0, 0, 0, 0, 0, 25390, 0, 0, 0],[0, 25496, 0, 19009, 0, 0, 33943, 39266, 38190, 0, 0, 0, 0, 0, 0, 0, 0, 0, 14589, 0, 44440, 0, 44246, 0, 0, 0, 0, 0, 0, 0, 0, -1, 30819, 33053, 0, 0, 0, 0, 0, 40759, 29354, 0, 0, 37626, 0, 0, 31448, 0, 0, 0, 0, 0, 0, 0, 0, 0, 41378, 29802, 35516, 45715, 0, 41589, 0, 0, 0, 0, 0, 0, 0, 0, 0, 0, 28635, 44599, 0, 30043, 0, 0, 25085, 39359, 23944, 18341, 19251, 0, 0, 0, 0, 25399, 0],[0, 0, 0, 37282, 0, 0, 0, 0, 42259, 0, 0, 0, 0, 39211, 40766, 0, 0, 0, 0, 0, 28633, 43591, 29658, 0, 0, 0, 0, 0, 0, 21216, 0, 30819, -1, 0, 0, 0, 0, 41538, 0, 0, 0, 38329, 0, 36989, 0, 0, 0, 21730, 28509, 0, 29594, 38675, 0, 0, 38484, 33748, 43302, 0, 0, 0, 3876, 40539, 0, 0, 0, 0, 0, 30369, 0, 0, 0, 0, 0, 0, 0, 0, 0, 0, 40767, 0, 23265, 0, 36958, 40831, 0, 0, 0, 42301, 0],[33180, 0, 0, 0, 45497, 0, 0, 0, 35913, 0, 0, 0, 0, 0, 0, 42755, 0, 24992, 34152, 0, 13676, 34062, 0, 0, 0, 0, 0, 0, 0, 0, 0, 33053, 0, -1, 0, 0, 0, 0, 0, 0, 0, 0, 0, 0, 0, 41233, 32647, 0, 0, 10267, 29826, 46288, 0, 2426, 0, 0, 0, 0, 19293, 0, 0, 0, 0, 0, 0, 0, 0, 0, 0, 0, 27782, 0, 0, 30677, 0, 0, 0, 0, 0, 0, 0, 0, 0, 0, 33964, 35303, 0, 37141, 0],[19756, 0, 0, 0, 0, 45865, 0, 41981, 42031, 0, 0, 45265, 0, 0, 0, 29925, 0, 0, 0, 0, 0, 0, 0, 0, 0, 0, 0, 30922, 0, 16080, 0, 0, 0, 0, -1, 0, 0, 0, 39683, 0, 0, 34507, 0, 0, 0, 0, 0, 0, 4200, 0, 0, 0, 0, 0, 0, 0, 0, 37199, 0, 0, 27720, 0, 0, 0, 46027, 0, 32432, 0, 33284, 0, 0, 0, 0, 42025, 37924, 0, 0, 0, 0, 0, 5148, 0, 0, 15703, 0, 0, 31128, 0, 0],[0, 0, 0, 36448, 0, 35091, 24966, 0, 0, 0, 0, 0, 0, 0, 0, 0, 0, 36562, 0, 37486, 0, 0, 32914, 0, 42730, 0, 0, 0, 0, 0, 0, 0, 0, 0, 0, -1, 0, 0, 0, 45585, 0, 0, 0, 0, 0, 0, 28454, 0, 0, 2719, 0, 0, 0, 0, 0, 0, 0, 0, 0, 0, 0, 0, 44874, 0, 0, 0, 0, 0, 45611, 16525, 4040, 0, 9653, 0, 0, 0, 0, 0, 0, 0, 0, 0, 0, 0, 37207, 0, 0, 0, 0],[0, 0, 0, 0, 28756, 26957, 0, 0, 19845, 0, 0, 0, 30316, 0, 24383, 0, 31673, 0, 0, 38865, 0, 0, 0, 0, 0, 0, 0, 23393, 45714, 33901, 0, 0, 0, 0, 0, 0, -1, 0, 27016, 0, 0, 0, 34705, 27765, 0, 0, 0, 0, 0, 0, 0, 0, 0, 0, 0, 0, 0, 0, 0, 0, 0, 0, 18652, 0, 0, 0, 0, 0, 0, 0, 0, 0, 0, 0, 0, 37160, 0, 0, 30260, 0, 32930, 8010, 27498, 0, 0, 24400, 0, 0, 43963],[0, 0, 35087, 13139, 0, 0, 0, 0, 0, 0, 0, 0, 0, 0, 0, 0, 0, 0, 0, 0, 0, 0, 0, 0, 0, 13537, 35864, 0, 0, 0, 0, 0, 41538, 0, 0, 0, 0, -1, 0, 30497, 0, 0, 0, 0, 33158, 19222, 16925, 0, 30366, 0, 0, 0, 0, 0, 0, 0, 0, 0, 41769, 0, 0, 0, 0, 0, 0, 12230, 0, 0, 0, 0, 0, 0, 0, 34561, 38882, 0, 0, 0, 0, 0, 0, 0, 0, 0, 0, 32712, 0, 42328, 0],[0, 0, 0, 0, 0, 0, 0, 0, 0, 0, 0, 0, 0, 29782, 0, 0, 0, 22151, 0, 0, 0, 0, 0, 40050, 0, 42426, 37948, 0, 0, 0, 0, 0, 0, 0, 39683, 0, 27016, 0, -1, 0, 0, 0, 0, 44647, 0, 0, 0, 0, 26029, 37989, 0, 0, 0, 0, 0, 33533, 0, 0, 21534, 0, 0, 0, 0, 0, 0, 38505, 0, 0, 0, 0, 0, 39334, 0, 0, 30398, 0, 0, 0, 26745, 0, 0, 0, 0, 0, 0, 0, 14899, 0, 0],[0, 0, 0, 0, 0, 0, 14176, 0, 38493, 0, 0, 25820, 0, 0, 0, 0, 0, 0, 0, 0, 0, 44222, 0, 16762, 0, 0, 44469, 0, 42405, 0, 0, 40759, 0, 0, 0, 45585, 0, 30497, 0, -1, 0, 42082, 0, 0, 0, 0, 45486, 0, 20204, 0, 0, 0, 35785, 0, 0, 45073, 0, 0, 7390, 0, 0, 0, 0, 0, 0, 0, 44576, 0, 11892, 0, 40056, 4851, 0, 0, 9160, 0, 15207, 0, 44139, 0, 0, 26075, 0, 40783, 0, 21464, 0, 0, 44641],[0, 0, 0, 41930, 0, 0, 0, 0, 0, 38325, 0, 20029, 0, 0, 32095, 0, 0, 0, 0, 0, 0, 0, 0, 0, 0, 0, 28197, 0, 0, 36459, 0, 29354, 0, 0, 0, 0, 0, 0, 0, 0, -1, 0, 0, 0, 0, 0, 0, 41200, 0, 0, 20150, 0, 0, 0, 27189, 0, 0, 0, 22655, 0, 0, 0, 42057, 0, 0, 0, 32470, 0, 0, 11776, 0, 0, 0, 34586, 0, 0, 0, 0, 25422, 0, 0, 0, 0, 0, 0, 0, 0, 0, 31029],[0, 19723, 32386, 34346, 34220, 15192, 0, 0, 0, 0, 0, 0, 41335, 0, 0, 32103, 35258, 0, 25711, 0, 0, 0, 0, 0, 38058, 0, 0, 0, 0, 0, 0, 0, 38329, 0, 34507, 0, 0, 0, 0, 42082, 0, -1, 0, 0, 0, 0, 0, 0, 0, 22801, 0, 0, 0, 44358, 0, 0, 0, 0, 0, 0, 13845, 0, 0, 0, 0, 0, 42180, 0, 43319, 38105, 0, 40737, 0, 0, 0, 0, 0, 0, 0, 0, 0, 45995, 0, 0, 0, 34592, 0, 0, 0],[0, 0, 0, 0, 0, 0, 0, 39257, 0, 0, 0, 0, 0, 0, 19687, 0, 0, 43652, 0, 0, 0, 0, 0, 0, 0, 0, 0, 0, 0, 0, 0, 0, 0, 0, 0, 0, 34705, 0, 0, 0, 0, 0, -1, 0, 36277, 0, 14498, 0, 0, 29388, 0, 0, 0, 41019, 25101, 0, 19923, 0, 0, 0, 40644, 0, 0, 0, 0, 0, 25313, 36613, 22982, 0, 0, 0, 0, 41474, 0, 0, 0, 0, 45068, 0, 0, 0, 19462, 0, 0, 0, 0, 46027, 0],[0, 0, 0, 0, 0, 0, 0, 0, 0, 20740, 0, 0, 0, 0, 0, 13115, 0, 15102, 33785, 0, 25415, 0, 21618, 0, 0, 0, 0, 0, 0, 0, 39317, 37626, 36989, 0, 0, 0, 27765, 0, 44647, 0, 0, 0, 0, -1, 14479, 41611, 0, 0, 25913, 27747, 0, 0, 0, 0, 0, 0, 0, 0, 0, 38785, 23431, 17302, 41097, 0, 0, 0, 5727, 40639, 23355, 0, 0, 20922, 39650, 0, 21635, 0, 0, 0, 39227, 0, 0, 0, 0, 0, 40079, 0, 12888, 38145, 0],[0, 0, 0, 41386, 0, 36268, 19267, 0, 0, 0, 0, 0, 23215, 37950, 27156, 39111, 0, 0, 0, 0, 45565, 0, 0, 0, 0, 38277, 0, 0, 0, 0, 32030, 0, 0, 0, 0, 0, 0, 33158, 0, 0, 0, 0, 36277, 14479, -1, 0, 43054, 0, 0, 30797, 0, 41304, 0, 30472, 22976, 0, 0, 0, 26435, 0, 24619, 43825, 42588, 0, 0, 25895, 24073, 0, 0, 0, 0, 0, 0, 0, 0, 0, 29171, 0, 0, 19443, 0, 34437, 0, 0, 45112, 43092, 31427, 0, 39563],[33012, 36066, 0, 0, 0, 0, 0, 0, 16107, 0, 0, 0, 0, 0, 0, 0, 0, 0, 0, 14429, 0, 41456, 0, 0, 0, 0, 0, 0, 0, 0, 0, 0, 0, 41233, 0, 0, 0, 19222, 0, 0, 0, 0, 0, 41611, 0, -1, 0, 25537, 0, 22777, 0, 0, 0, 0, 16320, 0, 0, 0, 0, 44408, 33186, 41018, 0, 0, 39935, 41926, 27668, 33234, 0, 0, 40116, 0, 0, 0, 46131, 0, 0, 0, 0, 0, 0, 36179, 46071, 0, 0, 9152, 0, 0, 39600],[0, 34024, 0, 0, 43956, 0, 32495, 0, 0, 0, 0, 0, 20328, 27626, 0, 0, 0, 0, 0, 8408, 37640, 0, 0, 0, 0, 0, 0, 0, 22354, 0, 0, 31448, 0, 32647, 0, 28454, 0, 16925, 0, 45486, 0, 0, 14498, 0, 43054, 0, -1, 0, 32336, 0, 0, 16650, 0, 0, 0, 0, 0, 0, 26761, 0, 0, 0, 0, 43008, 23384, 0, 20028, 0, 0, 0, 0, 0, 0, 27364, 0, 0, 0, 0, 0, 0, 0, 0, 40553, 0, 0, 0, 0, 0, 0],[0, 0, 21563, 0, 0, 0, 0, 0, 0, 43029, 45719, 0, 0, 0, 0, 0, 0, 29970, 0, 0, 0, 0, 0, 26835, 0, 0, 0, 0, 0, 0, 0, 0, 21730, 0, 0, 0, 0, 0, 0, 0, 41200, 0, 0, 0, 0, 25537, 0, -1, 0, 0, 0, 0, 0, 0, 0, 44635, 0, 32295, 0, 0, 0, 42276, 0, 17856, 0, 20125, 42184, 0, 7918, 0, 0, 36813, 43654, 0, 0, 0, 23099, 41169, 42544, 0, 0, 0, 24067, 0, 27780, 0, 0, 0, 0],[0, 0, 0, 0, 0, 0, 0, 0, 0, 0, 0, 19922, 0, 0, 0, 36883, 0, 0, 0, 0, 0, 0, 0, 15571, 0, 0, 0, 0, 0, 15356, 0, 0, 28509, 0, 4200, 0, 0, 30366, 26029, 20204, 0, 0, 0, 25913, 0, 0, 32336, 0, -1, 20768, 0, 37840, 40417, 0, 0, 0, 0, 0, 0, 0, 0, 0, 0, 21776, 0, 44991, 0, 0, 23942, 24031, 39546, 25263, 0, 0, 0, 0, 0, 0, 0, 0, 0, 0, 0, 0, 0, 0, 34659, 0, 20026],[0, 0, 22675, 0, 0, 0, 0, 40448, 0, 0, 11317, 0, 0, 0, 0, 0, 0, 0, 0, 0, 0, 0, 0, 0, 0, 0, 0, 0, 0, 0, 0, 0, 0, 10267, 0, 2719, 0, 0, 37989, 0, 0, 22801, 29388, 27747, 30797, 22777, 0, 0, 20768, -1, 0, 20799, 0, 0, 33910, 0, 40391, 0, 17149, 24604, 0, 0, 0, 0, 0, 0, 0, 0, 0, 34922, 0, 0, 0, 43332, 0, 0, 0, 0, 0, 36763, 36085, 37858, 0, 0, 7587, 0, 0, 0, 0],[12750, 0, 0, 7890, 0, 0, 0, 0, 39167, 0, 41335, 36217, 0, 0, 0, 0, 0, 0, 37522, 0, 0, 15875, 0, 15146, 0, 0, 0, 0, 0, 19804, 16064, 0, 29594, 29826, 0, 0, 0, 0, 0, 0, 20150, 0, 0, 0, 0, 0, 0, 0, 0, 0, -1, 0, 0, 0, 0, 0, 0, 0, 38519, 0, 0, 0, 0, 0, 0, 18422, 0, 0, 0, 36162, 37278, 39762, 0, 0, 0, 0, 0, 0, 0, 22307, 43571, 7965, 38356, 35131, 0, 0, 0, 17876, 0],[0, 0, 31519, 0, 0, 0, 0, 0, 16762, 32268, 0, 37150, 0, 0, 0, 37804, 0, 0, 0, 0, 0, 0, 26950, 0, 0, 22545, 0, 0, 0, 36502, 32153, 0, 38675, 46288, 0, 0, 0, 0, 0, 0, 0, 0, 0, 0, 41304, 0, 16650, 0, 37840, 20799, 0, -1, 33960, 32950, 46081, 0, 0, 0, 0, 0, 0, 45460, 0, 0, 0, 0, 0, 0, 46144, 38000, 5791, 0, 25811, 0, 0, 0, 31045, 0, 0, 10493, 0, 0, 0, 0, 0, 0, 0, 0, 0],[0, 0, 0, 0, 44136, 0, 0, 0, 0, 0, 0, 0, 0, 0, 44514, 0, 0, 0, 0, 0, 0, 13008, 39310, 0, 0, 23736, 0, 0, 0, 0, 0, 0, 0, 0, 0, 0, 0, 0, 0, 35785, 0, 0, 0, 0, 0, 0, 0, 0, 40417, 0, 0, 33960, -1, 44268, 0, 42349, 32467, 0, 0, 46193, 0, 0, 0, 0, 0, 0, 28994, 0, 0, 0, 0, 0, 38394, 0, 0, 0, 0, 32672, 0, 0, 0, 0, 0, 8729, 0, 0, 0, 0, 0],[43546, 19462, 0, 0, 0, 35312, 12934, 0, 31045, 0, 0, 0, 30612, 0, 0, 0, 0, 19063, 0, 0, 0, 25110, 0, 0, 0, 0, 0, 30812, 0, 0, 18961, 0, 0, 2426, 0, 0, 0, 0, 0, 0, 0, 44358, 41019, 0, 30472, 0, 0, 0, 0, 0, 0, 32950, 44268, -1, 0, 0, 0, 41123, 0, 0, 0, 27472, 45938, 0, 0, 0, 0, 0, 0, 0, 0, 0, 0, 0, 0, 0, 0, 0, 24011, 32985, 15739, 0, 0, 0, 0, 0, 0, 0, 0],[0, 0, 0, 0, 0, 0, 0, 0, 0, 40162, 17689, 19836, 0, 14886, 0, 0, 0, 0, 11312, 0, 37023, 30999, 0, 0, 43332, 0, 0, 0, 0, 0, 28484, 0, 38484, 0, 0, 0, 0, 0, 0, 0, 27189, 0, 25101, 0, 22976, 16320, 0, 0, 0, 33910, 0, 46081, 0, 0, -1, 0, 0, 46098, 0, 0, 0, 0, 0, 0, 9923, 0, 0, 0, 26414, 0, 0, 0, 0, 0, 39381, 0, 0, 0, 44581, 0, 0, 0, 0, 0, 0, 0, 0, 0, 38036],[0, 0, 10506, 43766, 23716, 0, 39508, 0, 0, 30814, 0, 0, 0, 0, 0, 0, 0, 0, 0, 0, 0, 0, 0, 0, 0, 0, 11654, 21378, 0, 36934, 0, 0, 33748, 0, 0, 0, 0, 0, 33533, 45073, 0, 0, 0, 0, 0, 0, 0, 44635, 0, 0, 0, 0, 42349, 0, 0, -1, 0, 0, 45220, 42322, 38288, 0, 44793, 0, 0, 28199, 23741, 0, 0, 0, 0, 0, 0, 0, 0, 0, 0, 0, 0, 0, 0, 0, 0, 0, 0, 35608, 0, 0, 0],[0, 0, 0, 0, 0, 33688, 0, 17368, 39626, 0, 0, 0, 0, 0, 0, 43822, 0, 0, 0, 17829, 0, 0, 0, 22169, 0, 40829, 0, 0, 0, 0, 37210, 41378, 43302, 0, 0, 0, 0, 0, 0, 0, 0, 0, 19923, 0, 0, 0, 0, 0, 0, 40391, 0, 0, 32467, 0, 0, 0, -1, 0, 0, 0, 0, 0, 0, 0, 0, 0, 34835, 0, 0, 43986, 0, 0, 0, 0, 29764, 0, 0, 0, 0, 0, 32854, 0, 0, 37612, 0, 41290, 17743, 0, 38193],[0, 39877, 0, 0, 0, 0, 12754, 36976, 0, 0, 0, 0, 0, 0, 0, 0, 0, 0, 0, 0, 0, 0, 0, 0, 0, 0, 0, 0, 0, 0, 0, 29802, 0, 0, 37199, 0, 0, 0, 0, 0, 0, 0, 0, 0, 0, 0, 0, 32295, 0, 0, 0, 0, 0, 41123, 46098, 0, 0, -1, 0, 0, 28945, 0, 14152, 0, 33324, 0, 0, 0, 0, 0, 0, 16596, 0, 0, 0, 0, 37821, 31002, 45277, 0, 0, 0, 0, 0, 0, 0, 0, 23120, 0],[45466, 0, 0, 0, 0, 0, 18376, 0, 39648, 0, 0, 15942, 26685, 0, 0, 0, 40398, 0, 0, 0, 0, 0, 0, 0, 0, 0, 0, 0, 0, 0, 0, 35516, 0, 19293, 0, 0, 0, 41769, 21534, 7390, 22655, 0, 0, 0, 26435, 0, 26761, 0, 0, 17149, 38519, 0, 0, 0, 0, 45220, 0, 0, -1, 0, 0, 0, 38107, 0, 38328, 0, 0, 0, 0, 38107, 0, 0, 0, 0, 0, 0, 0, 0, 0, 0, 0, 0, 0, 0, 19903, 0, 0, 0, 0],[0, 0, 0, 0, 40701, 0, 30190, 0, 0, 0, 0, 38950, 0, 0, 0, 0, 33458, 0, 1253, 0, 31955, 36836, 40336, 44210, 37409, 40619, 0, 0, 0, 0, 0, 45715, 0, 0, 0, 0, 0, 0, 0, 0, 0, 0, 0, 38785, 0, 44408, 0, 0, 0, 24604, 0, 0, 46193, 0, 0, 42322, 0, 0, 0, -1, 0, 0, 33842, 0, 0, 0, 37547, 0, 17628, 41718, 0, 22329, 0, 0, 0, 0, 0, 0, 0, 0, 0, 0, 37127, 0, 0, 0, 0, 0, 0],[0, 46145, 42901, 0, 0, 0, 0, 0, 42599, 7611, 0, 0, 0, 0, 0, 0, 0, 0, 0, 38498, 0, 3062, 0, 34636, 31811, 0, 0, 0, 0, 0, 0, 0, 3876, 0, 27720, 0, 0, 0, 0, 0, 0, 13845, 40644, 23431, 24619, 33186, 0, 0, 0, 0, 0, 0, 0, 0, 0, 38288, 0, 28945, 0, 0, -1, 40092, 0, 24566, 0, 0, 0, 0, 0, 31696, 0, 0, 0, 9773, 46218, 0, 28358, 0, 0, 0, 0, 0, 32756, 0, 0, 0, 0, 0, 0],[0, 0, 40131, 35467, 0, 0, 0, 26799, 0, 0, 0, 17679, 0, 0, 0, 0, 0, 0, 0, 0, 5674, 0, 18575, 0, 0, 0, 6155, 0, 0, 0, 0, 41589, 40539, 0, 0, 0, 0, 0, 0, 0, 0, 0, 0, 17302, 43825, 41018, 0, 42276, 0, 0, 0, 45460, 0, 27472, 0, 0, 0, 0, 0, 0, 40092, -1, 0, 0, 44777, 0, 0, 0, 0, 0, 0, 36562, 0, 0, 18730, 0, 12295, 42969, 29192, 0, 0, 0, 0, 35415, 0, 0, 0, 0, 0],[0, 0, 21098, 0, 35336, 32997, 16112, 23140, 0, 0, 0, 38668, 0, 38983, 0, 21723, 0, 0, 0, 0, 40980, 0, 0, 0, 33620, 0, 0, 46300, 0, 0, 0, 0, 0, 0, 0, 44874, 18652, 0, 0, 0, 42057, 0, 0, 41097, 42588, 0, 0, 0, 0, 0, 0, 0, 0, 45938, 0, 44793, 0, 14152, 38107, 33842, 0, 0, -1, 0, 0, 0, 0, 0, 0, 0, 45596, 0, 0, 0, 0, 0, 0, 0, 37896, 0, 0, 33455, 0, 0, 0, 0, 0, 0, 0],[0, 0, 40931, 0, 23387, 0, 25860, 0, 0, 0, 0, 0, 0, 0, 35011, 0, 45823, 0, 0, 31851, 19598, 0, 45322, 0, 0, 0, 0, 0, 0, 0, 0, 0, 0, 0, 0, 0, 0, 0, 0, 0, 0, 0, 0, 0, 0, 0, 43008, 17856, 21776, 0, 0, 0, 0, 0, 0, 0, 0, 0, 0, 0, 24566, 0, 0, -1, 28318, 0, 0, 0, 0, 0, 0, 0, 0, 0, 0, 15138, 39566, 42189, 0, 0, 0, 32248, 0, 0, 0, 15542, 0, 21730, 0],[0, 0, 0, 0, 0, 0, 44958, 0, 33412, 0, 0, 0, 0, 0, 0, 0, 0, 0, 0, 0, 41984, 0, 0, 44669, 0, 0, 0, 0, 0, 0, 0, 0, 0, 0, 46027, 0, 0, 0, 0, 0, 0, 0, 0, 0, 0, 39935, 23384, 0, 0, 0, 0, 0, 0, 0, 9923, 0, 0, 33324, 38328, 0, 0, 44777, 0, 28318, -1, 0, 0, 25632, 0, 45983, 45745, 0, 43278, 41755, 0, 36313, 0, 34556, 35359, 0, 22570, 0, 0, 23649, 0, 0, 0, 22072, 0],[20675, 0, 0, 10116, 0, 0, 0, 37541, 45630, 0, 0, 0, 0, 0, 32565, 0, 0, 0, 35205, 0, 0, 0, 0, 0, 0, 0, 7034, 0, 0, 0, 0, 0, 0, 0, 0, 0, 0, 12230, 38505, 0, 0, 0, 0, 0, 25895, 41926, 0, 20125, 44991, 0, 18422, 0, 0, 0, 0, 28199, 0, 0, 0, 0, 0, 0, 0, 0, 0, -1, 0, 0, 37745, 0, 41592, 0, 0, 0, 44493, 0, 0, 0, 0, 0, 34827, 0, 0, 0, 0, 0, 0, 0, 24860],[42778, 0, 40692, 20241, 0, 0, 0, 41007, 22599, 0, 0, 0, 41049, 0, 0, 0, 0, 0, 0, 0, 0, 0, 25019, 0, 0, 40214, 0, 28066, 0, 0, 32400, 0, 0, 0, 32432, 0, 0, 0, 0, 44576, 32470, 42180, 25313, 5727, 24073, 27668, 20028, 42184, 0, 0, 0, 0, 28994, 0, 0, 23741, 34835, 0, 0, 37547, 0, 0, 0, 0, 0, 0, -1, 25370, 0, 0, 0, 0, 0, 20129, 0, 0, 0, 0, 0, 30244, 0, 0, 0, 0, 0, 30407, 0, 24400, 0],[0, 19506, 42523, 0, 35148, 0, 27268, 0, 0, 0, 0, 0, 0, 0, 0, 35487, 39480, 11886, 0, 0, 0, 0, 0, 0, 35849, 0, 0, 0, 0, 0, 0, 0, 30369, 0, 0, 0, 0, 0, 0, 0, 0, 0, 36613, 40639, 0, 33234, 0, 0, 0, 0, 0, 0, 0, 0, 0, 0, 0, 0, 0, 0, 0, 0, 0, 0, 25632, 0, 25370, -1, 41353, 0, 0, 0, 30355, 0, 0, 0, 0, 0, 0, 28849, 34280, 0, 32892, 0, 0, 0, 0, 0, 0],[0, 17278, 19140, 0, 0, 0, 0, 26905, 0, 30709, 44951, 0, 9182, 0, 0, 6502, 0, 0, 0, 14796, 35640, 43387, 38377, 0, 0, 0, 0, 0, 0, 0, 0, 0, 0, 0, 33284, 45611, 0, 0, 0, 11892, 0, 43319, 22982, 23355, 0, 0, 0, 7918, 23942, 0, 0, 46144, 0, 0, 26414, 0, 0, 0, 0, 17628, 0, 0, 0, 0, 0, 37745, 0, 41353, -1, 0, 0, 0, 34909, 0, 0, 39938, 0, 0, 40099, 0, 0, 0, 29231, 30914, 0, 0, 32065, 0, 0],[0, 0, 0, 26456, 0, 0, 35694, 0, 0, 0, 0, 42386, 0, 38530, 30372, 0, 0, 0, 0, 0, 0, 0, 0, 0, 0, 0, 0, 40185, 0, 0, 0, 0, 0, 0, 0, 16525, 0, 0, 0, 0, 11776, 38105, 0, 0, 0, 0, 0, 0, 24031, 34922, 36162, 38000, 0, 0, 0, 0, 43986, 0, 38107, 41718, 31696, 0, 0, 0, 45983, 0, 0, 0, 0, -1, 0, 0, 0, 45455, 0, 0, 0, 45627, 0, 22818, 29528, 43599, 0, 0, 0, 0, 0, 0, 0],[0, 0, 0, 0, 17560, 0, 37007, 0, 30311, 26434, 0, 0, 0, 0, 0, 0, 24231, 0, 0, 12204, 0, 0, 19263, 0, 0, 0, 0, 0, 0, 0, 0, 0, 0, 27782, 0, 4040, 0, 0, 0, 40056, 0, 0, 0, 0, 0, 40116, 0, 0, 39546, 0, 37278, 5791, 0, 0, 0, 0, 0, 0, 0, 0, 0, 0, 45596, 0, 45745, 41592, 0, 0, 0, 0, -1, 0, 0, 0, 0, 0, 0, 0, 0, 0, 0, 40594, 18454, 0, 0, 0, 35715, 0, 0],[0, 42939, 31694, 0, 0, 0, 0, 0, 0, 0, 0, 0, 0, 31926, 0, 0, 0, 0, 0, 0, 0, 0, 40903, 0, 26153, 0, 0, 0, 16790, 0, 40763, 0, 0, 0, 0, 0, 0, 0, 39334, 4851, 0, 40737, 0, 20922, 0, 0, 0, 36813, 25263, 0, 39762, 0, 0, 0, 0, 0, 0, 16596, 0, 22329, 0, 36562, 0, 0, 0, 0, 0, 0, 0, 0, 0, -1, 0, 0, 34136, 0, 28947, 39744, 0, 0, 0, 0, 0, 0, 0, 27867, 0, 0, 28412],[0, 0, 0, 0, 0, 0, 0, 0, 0, 0, 0, 0, 46336, 0, 0, 0, 0, 0, 0, 0, 0, 0, 45598, 0, 24346, 0, 0, 0, 0, 0, 0, 28635, 0, 0, 0, 9653, 0, 0, 0, 0, 0, 0, 0, 39650, 0, 0, 0, 43654, 0, 0, 0, 25811, 38394, 0, 0, 0, 0, 0, 0, 0, 0, 0, 0, 0, 43278, 0, 0, 30355, 34909, 0, 0, 0, -1, 0, 21476, 0, 0, 45365, 0, 0, 0, 0, 22589, 0, 0, 20345, 0, 0, 0],[0, 0, 0, 45111, 45677, 0, 0, 32813, 0, 27639, 0, 0, 0, 0, 0, 0, 0, 0, 0, 39118, 0, 0, 0, 0, 0, 0, 43280, 0, 0, 0, 0, 44599, 0, 30677, 42025, 0, 0, 34561, 0, 0, 34586, 0, 41474, 0, 0, 0, 27364, 0, 0, 43332, 0, 0, 0, 0, 0, 0, 0, 0, 0, 0, 9773, 0, 0, 0, 41755, 0, 20129, 0, 0, 45455, 0, 0, 0, -1, 0, 0, 0, 0, 0, 0, 0, 0, 0, 17671, 0, 0, 0, 0, 0],[0, 0, 0, 0, 0, 0, 0, 0, 0, 0, 0, 0, 0, 40777, 34729, 37151, 0, 0, 0, 44040, 0, 0, 0, 0, 13135, 0, 0, 0, 12673, 0, 0, 0, 0, 0, 37924, 0, 0, 38882, 30398, 9160, 0, 0, 0, 21635, 0, 46131, 0, 0, 0, 0, 0, 0, 0, 0, 39381, 0, 29764, 0, 0, 0, 46218, 18730, 0, 0, 0, 44493, 0, 0, 0, 0, 0, 34136, 21476, 0, -1, 0, 0, 0, 0, 0, 0, 0, 0, 0, 0, 0, 0, 0, 0],[39962, 0, 21843, 0, 0, 33176, 9276, 0, 0, 0, 26358, 31686, 0, 0, 0, 0, 0, 0, 0, 0, 0, 0, 0, 0, 0, 0, 0, 0, 0, 0, 39238, 30043, 0, 0, 0, 0, 37160, 0, 0, 0, 0, 0, 0, 0, 0, 0, 0, 0, 0, 0, 0, 0, 0, 0, 0, 0, 0, 0, 0, 0, 0, 0, 0, 15138, 36313, 0, 0, 0, 39938, 0, 0, 0, 0, 0, 0, -1, 0, 0, 23029, 0, 0, 0, 0, 0, 33688, 0, 0, 13693, 0],[0, 0, 0, 0, 0, 0, 0, 0, 0, 22910, 0, 0, 0, 43780, 28766, 0, 0, 0, 0, 0, 0, 20229, 0, 0, 0, 24246, 0, 0, 0, 0, 0, 0, 0, 0, 0, 0, 0, 0, 0, 15207, 0, 0, 0, 0, 29171, 0, 0, 23099, 0, 0, 0, 31045, 0, 0, 0, 0, 0, 37821, 0, 0, 28358, 12295, 0, 39566, 0, 0, 0, 0, 0, 0, 0, 28947, 0, 0, 0, 0, -1, 0, 35904, 0, 0, 37580, 20462, 0, 0, 0, 30522, 0, 0],[0, 0, 0, 0, 0, 0, 44253, 0, 0, 0, 0, 16514, 0, 0, 0, 23991, 39774, 0, 33966, 38106, 28589, 0, 41503, 35500, 20939, 0, 0, 0, 20896, 0, 23711, 0, 0, 0, 0, 0, 0, 0, 0, 0, 0, 0, 0, 0, 0, 0, 0, 41169, 0, 0, 0, 0, 32672, 0, 0, 0, 0, 31002, 0, 0, 0, 42969, 0, 42189, 34556, 0, 0, 0, 0, 45627, 0, 39744, 45365, 0, 0, 0, 0, -1, 0, 0, 0, 25229, 0, 9240, 0, 38334, 0, 0, 0],[0, 0, 0, 0, 0, 21049, 0, 0, 0, 0, 36623, 0, 0, 0, 0, 34013, 38573, 0, 38672, 0, 25062, 40209, 33574, 16859, 0, 45694, 0, 45497, 0, 0, 39619, 25085, 40767, 0, 0, 0, 30260, 0, 26745, 44139, 25422, 0, 45068, 39227, 0, 0, 0, 42544, 0, 0, 0, 0, 0, 24011, 44581, 0, 0, 45277, 0, 0, 0, 29192, 37896, 0, 35359, 0, 0, 0, 40099, 0, 0, 0, 0, 0, 0, 23029, 35904, 0, -1, 0, 6256, 0, 10460, 0, 0, 0, 12292, 0, 38031],[0, 0, 0, 39222, 28130, 0, 0, 21828, 0, 0, 0, 0, 45165, 0, 0, 0, 0, 0, 41514, 0, 0, 22320, 39986, 0, 0, 0, 0, 0, 0, 0, 0, 39359, 0, 0, 0, 0, 0, 0, 0, 0, 0, 0, 0, 0, 19443, 0, 0, 0, 0, 36763, 22307, 10493, 0, 32985, 0, 0, 0, 0, 0, 0, 0, 0, 0, 0, 0, 0, 30244, 28849, 0, 22818, 0, 0, 0, 0, 0, 0, 0, 0, 0, -1, 39416, 10151, 0, 0, 0, 0, 0, 0, 0],[25748, 0, 0, 31345, 0, 0, 0, 0, 0, 0, 0, 34763, 35683, 40789, 0, 0, 14529, 0, 0, 0, 0, 37880, 0, 0, 0, 43262, 0, 35430, 0, 0, 0, 23944, 23265, 0, 5148, 0, 32930, 0, 0, 0, 0, 0, 0, 0, 0, 0, 0, 0, 0, 36085, 43571, 0, 0, 15739, 0, 0, 32854, 0, 0, 0, 0, 0, 0, 0, 22570, 34827, 0, 34280, 0, 29528, 0, 0, 0, 0, 0, 0, 0, 0, 6256, 39416, -1, 0, 0, 0, 0, 0, 36169, 42885, 0],[0, 22582, 0, 0, 0, 0, 0, 0, 36886, 0, 0, 0, 0, 40446, 26679, 0, 0, 0, 0, 0, 0, 0, 27859, 39401, 32151, 0, 0, 0, 0, 0, 0, 18341, 0, 0, 0, 0, 8010, 0, 0, 26075, 0, 45995, 0, 0, 34437, 36179, 0, 0, 0, 37858, 7965, 0, 0, 0, 0, 0, 0, 0, 0, 0, 0, 0, 33455, 32248, 0, 0, 0, 0, 0, 43599, 40594, 0, 0, 0, 0, 0, 37580, 25229, 0, 10151, 0, -1, 30367, 0, 28667, 0, 0, 0, 0],[42698, 0, 0, 38560, 0, 0, 0, 0, 0, 34532, 27369, 0, 0, 0, 0, 0, 11442, 9031, 0, 0, 0, 0, 0, 31520, 0, 0, 0, 0, 0, 18581, 0, 19251, 36958, 0, 0, 0, 27498, 0, 0, 0, 0, 0, 19462, 0, 0, 46071, 40553, 24067, 0, 0, 38356, 0, 0, 0, 0, 0, 0, 0, 0, 37127, 32756, 0, 0, 0, 0, 0, 0, 32892, 29231, 0, 18454, 0, 22589, 0, 0, 0, 20462, 0, 10460, 0, 0, 30367, -1, 0, 0, 0, 35385, 0, 0],[0, 10525, 0, 0, 0, 0, 0, 0, 45356, 0, 17372, 0, 0, 0, 0, 0, 34897, 0, 42474, 0, 30773, 0, 45619, 0, 36872, 15059, 14764, 0, 23370, 0, 0, 0, 40831, 0, 15703, 0, 0, 0, 0, 40783, 0, 0, 0, 0, 0, 0, 0, 0, 0, 0, 35131, 0, 8729, 0, 0, 0, 37612, 0, 0, 0, 0, 35415, 0, 0, 23649, 0, 0, 0, 30914, 0, 0, 0, 0, 17671, 0, 0, 0, 9240, 0, 0, 0, 0, 0, -1, 0, 18409, 0, 0, 0],[0, 0, 0, 38805, 22226, 0, 0, 0, 0, 0, 0, 23689, 31310, 0, 0, 0, 0, 38458, 0, 7601, 24499, 0, 0, 0, 0, 0, 0, 0, 0, 0, 0, 0, 0, 33964, 0, 37207, 0, 0, 0, 0, 0, 0, 0, 40079, 45112, 0, 0, 27780, 0, 7587, 0, 0, 0, 0, 0, 0, 0, 0, 19903, 0, 0, 0, 0, 0, 0, 0, 0, 0, 0, 0, 0, 0, 0, 0, 0, 33688, 0, 0, 0, 0, 0, 28667, 0, 0, -1, 0, 0, 0, 0],[0, 0, 0, 0, 0, 38651, 0, 0, 0, 19431, 0, 0, 0, 23794, 0, 0, 0, 0, 0, 38201, 0, 0, 0, 41867, 0, 44424, 30382, 0, 0, 0, 25390, 0, 0, 35303, 0, 0, 24400, 32712, 0, 21464, 0, 34592, 0, 0, 43092, 9152, 0, 0, 0, 0, 0, 0, 0, 0, 0, 35608, 41290, 0, 0, 0, 0, 0, 0, 15542, 0, 0, 30407, 0, 0, 0, 0, 27867, 20345, 0, 0, 0, 0, 38334, 0, 0, 0, 0, 0, 18409, 0, -1, 0, 0, 0],[0, 20588, 32572, 0, 0, 0, 0, 0, 0, 0, 0, 0, 0, 0, 0, 0, 0, 0, 0, 0, 0, 24201, 0, 0, 0, 0, 0, 0, 39697, 39322, 0, 0, 0, 0, 31128, 0, 0, 0, 14899, 0, 0, 0, 0, 12888, 31427, 0, 0, 0, 34659, 0, 0, 0, 0, 0, 0, 0, 17743, 0, 0, 0, 0, 0, 0, 0, 0, 0, 0, 0, 32065, 0, 35715, 0, 0, 0, 0, 0, 30522, 0, 12292, 0, 36169, 0, 35385, 0, 0, 0, -1, 0, 0],[0, 0, 0, 43567, 0, 0, 46286, 0, 0, 0, 0, 0, 0, 0, 35298, 0, 16360, 0, 23891, 0, 0, 0, 0, 0, 34385, 0, 0, 0, 1274, 29706, 0, 25399, 42301, 37141, 0, 0, 0, 42328, 0, 0, 0, 0, 46027, 38145, 0, 0, 0, 0, 0, 0, 17876, 0, 0, 0, 0, 0, 0, 23120, 0, 0, 0, 0, 0, 21730, 22072, 0, 24400, 0, 0, 0, 0, 0, 0, 0, 0, 13693, 0, 0, 0, 0, 42885, 0, 0, 0, 0, 0, 0, -1, 0],[46141, 0, 0, 0, 0, 0, 0, 0, 0, 0, 0, 0, 21902, 0, 22585, 20831, 0, 0, 0, 43392, 0, 0, 0, 0, 0, 0, 41683, 0, 26119, 14900, 0, 0, 0, 0, 0, 0, 43963, 0, 0, 44641, 31029, 0, 0, 0, 39563, 39600, 0, 0, 20026, 0, 0, 0, 0, 0, 38036, 0, 38193, 0, 0, 0, 0, 0, 0, 0, 0, 24860, 0, 0, 0, 0, 0, 28412, 0, 0, 0, 0, 0, 0, 38031, 0, 0, 0, 0, 0, 0, 0, 0, 0, -1]]